; benchmark generated from python API
(set-info :status unknown)
(declare-fun x_month () Int)
(declare-fun x_day () Int)
(declare-fun x_year () Int)
(assert
 (>= x_month 1))
(assert
 (<= x_month 12))
(assert
 (>= x_day 1))
(assert
 (<= x_day 31))
(assert
 (let (($x296 (<= x_day 28)))
 (let (($x109 (<= x_day 29)))
 (let (($x213 (= (mod x_year 400) 0)))
 (let (($x160 (= (mod x_year 4) 0)))
 (let (($x552 (ite (or (and $x160 (and (distinct (mod x_year 100) 0) true)) $x213) $x109 $x296)))
 (let (($x610 (= x_month 2)))
 (ite $x610 $x552 true))))))))
(assert
 (let (($x240 (<= x_day 30)))
 (let (($x167 (or (= x_month 4) (= x_month 6) (= x_month 9) (= x_month 11))))
 (ite $x167 $x240 true))))
(assert
 (let (($x779 (= x_year 2023)))
 (let (($x554 (and $x779 (or (> x_month 1) (and (= x_month 1) (>= x_day 1))))))
 (or (> x_year 2023) $x554))))
(assert
 (let (($x317 (or (= (+ (mod (- (+ x_month 0) 1) 12) 1) 4) (= (+ (mod (- (+ x_month 0) 1) 12) 1) 6) (= (+ (mod (- (+ x_month 0) 1) 12) 1) 9) (= (+ (mod (- (+ x_month 0) 1) 12) 1) 11))))
(let ((?x107 (+ x_year 0)))
(let ((?x661 (+ ?x107 (div (- (+ x_month 0) 1) 12))))
(let (($x615 (or (and (= (mod ?x661 4) 0) (and (distinct (mod ?x661 100) 0) true)) (= (mod ?x661 400) 0))))
(let ((?x634 (ite (= (+ (mod (- (+ x_month 0) 1) 12) 1) 2) (ite $x615 29 28) (ite $x317 30 31))))
(let (($x687 (< x_day 1)))
(let ((?x282 (ite $x687 1 (ite (> x_day ?x634) ?x634 x_day))))
(let ((?x792 (ite (< ?x282 1) 1 (ite (> ?x282 ?x634) ?x634 ?x282))))
(let (($x744 (and (= (mod (+ ?x661 (* (div 31 146097) 400)) 4) 0) (and (distinct (mod (+ ?x661 (* (div 31 146097) 400)) 100) 0) true))))
(let (($x174 (or $x744 (= (mod (+ ?x661 (* (div 31 146097) 400)) 400) 0))))
(let ((?x771 (ite (= 1 (+ (mod (- (+ x_month 0) 1) 12) 1)) (ite $x174 0 0) 0)))
(let ((?x132 (ite (= 2 (+ (mod (- (+ x_month 0) 1) 12) 1)) (ite $x174 31 31) ?x771)))
(let ((?x445 (ite (= 3 (+ (mod (- (+ x_month 0) 1) 12) 1)) (ite $x174 60 59) ?x132)))
(let ((?x444 (ite (= 4 (+ (mod (- (+ x_month 0) 1) 12) 1)) (ite $x174 91 90) ?x445)))
(let ((?x110 (ite (= 5 (+ (mod (- (+ x_month 0) 1) 12) 1)) (ite $x174 121 120) ?x444)))
(let ((?x209 (ite (= 6 (+ (mod (- (+ x_month 0) 1) 12) 1)) (ite $x174 152 151) ?x110)))
(let ((?x614 (ite (= 7 (+ (mod (- (+ x_month 0) 1) 12) 1)) (ite $x174 182 181) ?x209)))
(let ((?x499 (ite (= 8 (+ (mod (- (+ x_month 0) 1) 12) 1)) (ite $x174 213 212) ?x614)))
(let ((?x877 (ite (= 9 (+ (mod (- (+ x_month 0) 1) 12) 1)) (ite $x174 244 243) ?x499)))
(let ((?x522 (ite (= 10 (+ (mod (- (+ x_month 0) 1) 12) 1)) (ite $x174 274 273) ?x877)))
(let ((?x606 (ite (= 11 (+ (mod (- (+ x_month 0) 1) 12) 1)) (ite $x174 305 304) ?x522)))
(let ((?x579 (ite (= 12 (+ (mod (- (+ x_month 0) 1) 12) 1)) (ite $x174 335 334) ?x606)))
(let ((?x300 (+ (* 365 (- (+ ?x661 (* (div 31 146097) 400)) 1)) (div (- (+ ?x661 (* (div 31 146097) 400)) 1) 4))))
(let ((?x507 (+ (- ?x300 (div (- (+ ?x661 (* (div 31 146097) 400)) 1) 100)) (div (- (+ ?x661 (* (div 31 146097) 400)) 1) 400))))
(let ((?x229 (+ (+ (+ ?x507 ?x579) (- ?x792 1)) (mod 31 146097))))
(let ((?x431 (mod ?x229 146097)))
(let ((?x319 (div ?x431 36524)))
(let ((?x721 (ite (<= 4 ?x319) 3 ?x319)))
(let ((?x411 (- ?x431 (* ?x721 36524))))
(let ((?x337 (mod ?x411 1461)))
(let ((?x577 (div ?x337 365)))
(let ((?x532 (ite (<= 4 ?x577) 3 ?x577)))
(let ((?x266 (+ (+ (* (div ?x229 146097) 400) (* ?x721 100)) (* (div ?x411 1461) 4))))
(let ((?x137 (+ (+ ?x266 ?x532) 1)))
(let (($x686 (or (and (= (mod ?x137 4) 0) (and (distinct (mod ?x137 100) 0) true)) (= (mod ?x137 400) 0))))
(let ((?x1278 (- ?x337 (* ?x532 365))))
(let ((?x292 (ite $x686 31 31)))
(let (($x169 (>= ?x1278 ?x292)))
(let ((?x761 (ite $x169 (+ (- ?x1278 ?x292) 1) (+ (- ?x1278 (ite $x686 0 0)) 1))))
(let ((?x108 (ite $x686 60 59)))
(let (($x251 (>= ?x1278 ?x108)))
(let ((?x335 (ite $x686 91 90)))
(let (($x498 (>= ?x1278 ?x335)))
(let ((?x541 (ite $x498 (+ (- ?x1278 ?x335) 1) (ite $x251 (+ (- ?x1278 ?x108) 1) ?x761))))
(let ((?x366 (ite $x686 121 120)))
(let (($x208 (>= ?x1278 ?x366)))
(let ((?x705 (ite $x686 152 151)))
(let (($x622 (>= ?x1278 ?x705)))
(let ((?x314 (ite $x622 (+ (- ?x1278 ?x705) 1) (ite $x208 (+ (- ?x1278 ?x366) 1) ?x541))))
(let ((?x703 (ite $x686 182 181)))
(let (($x144 (>= ?x1278 ?x703)))
(let ((?x233 (ite $x686 213 212)))
(let (($x1253 (>= ?x1278 ?x233)))
(let ((?x344 (ite $x1253 (+ (- ?x1278 ?x233) 1) (ite $x144 (+ (- ?x1278 ?x703) 1) ?x314))))
(let ((?x450 (ite $x686 244 243)))
(let (($x1256 (>= ?x1278 ?x450)))
(let ((?x766 (ite $x686 274 273)))
(let (($x310 (>= ?x1278 ?x766)))
(let ((?x500 (ite $x310 (+ (- ?x1278 ?x766) 1) (ite $x1256 (+ (- ?x1278 ?x450) 1) ?x344))))
(let ((?x537 (ite $x686 305 304)))
(let (($x509 (>= ?x1278 ?x537)))
(let ((?x203 (ite $x686 335 334)))
(let (($x134 (>= ?x1278 ?x203)))
(let ((?x1176 (ite $x134 (+ (- ?x1278 ?x203) 1) (ite $x509 (+ (- ?x1278 ?x537) 1) ?x500))))
(let (($x660 (= 0 31)))
(let (($x106 (or (= (+ (mod (- (+ x_month 1) 1) 12) 1) 4) (= (+ (mod (- (+ x_month 1) 1) 12) 1) 6) (= (+ (mod (- (+ x_month 1) 1) 12) 1) 9) (= (+ (mod (- (+ x_month 1) 1) 12) 1) 11))))
(let (($x550 (= (mod (+ ?x107 (div (- (+ x_month 1) 1) 12)) 400) 0)))
(let (($x434 (and (distinct (mod (+ ?x107 (div (- (+ x_month 1) 1) 12)) 100) 0) true)))
(let (($x243 (= (mod (+ ?x107 (div (- (+ x_month 1) 1) 12)) 4) 0)))
(let ((?x775 (ite (= (+ (mod (- (+ x_month 1) 1) 12) 1) 2) (ite (or (and $x243 $x434) $x550) 29 28) (ite $x106 30 31))))
(let ((?x738 (ite $x687 1 (ite (> x_day ?x775) ?x775 x_day))))
(let ((?x558 (ite (< ?x738 1) 1 (ite (> ?x738 ?x775) ?x775 ?x738))))
(let ((?x702 (+ ?x107 (div (- (+ x_month 1) 1) 12))))
(let ((?x652 (+ ?x702 (* (div 0 146097) 400))))
(let (($x177 (or (and (= (mod ?x652 4) 0) (and (distinct (mod ?x652 100) 0) true)) (= (mod ?x652 400) 0))))
(let ((?x182 (ite (= 1 (+ (mod (- (+ x_month 1) 1) 12) 1)) (ite $x177 0 0) 0)))
(let ((?x376 (ite (= 2 (+ (mod (- (+ x_month 1) 1) 12) 1)) (ite $x177 31 31) ?x182)))
(let ((?x642 (ite (= 3 (+ (mod (- (+ x_month 1) 1) 12) 1)) (ite $x177 60 59) ?x376)))
(let ((?x278 (ite (= 4 (+ (mod (- (+ x_month 1) 1) 12) 1)) (ite $x177 91 90) ?x642)))
(let ((?x757 (ite (= 5 (+ (mod (- (+ x_month 1) 1) 12) 1)) (ite $x177 121 120) ?x278)))
(let ((?x824 (ite (= 6 (+ (mod (- (+ x_month 1) 1) 12) 1)) (ite $x177 152 151) ?x757)))
(let ((?x254 (ite (= 7 (+ (mod (- (+ x_month 1) 1) 12) 1)) (ite $x177 182 181) ?x824)))
(let ((?x557 (ite (= 8 (+ (mod (- (+ x_month 1) 1) 12) 1)) (ite $x177 213 212) ?x254)))
(let ((?x802 (ite (= 9 (+ (mod (- (+ x_month 1) 1) 12) 1)) (ite $x177 244 243) ?x557)))
(let ((?x798 (ite (= 10 (+ (mod (- (+ x_month 1) 1) 12) 1)) (ite $x177 274 273) ?x802)))
(let ((?x817 (ite (= 11 (+ (mod (- (+ x_month 1) 1) 12) 1)) (ite $x177 305 304) ?x798)))
(let ((?x237 (ite (= 12 (+ (mod (- (+ x_month 1) 1) 12) 1)) (ite $x177 335 334) ?x817)))
(let ((?x412 (- (+ (* 365 (- ?x652 1)) (div (- ?x652 1) 4)) (div (- ?x652 1) 100))))
(let ((?x200 (+ (+ (+ (+ ?x412 (div (- ?x652 1) 400)) ?x237) (- ?x558 1)) (mod 0 146097))))
(let ((?x692 (mod ?x200 146097)))
(let ((?x454 (div ?x692 36524)))
(let ((?x165 (ite (<= 4 ?x454) 3 ?x454)))
(let ((?x564 (- ?x692 (* ?x165 36524))))
(let ((?x327 (mod ?x564 1461)))
(let ((?x212 (div ?x327 365)))
(let ((?x518 (ite (<= 4 ?x212) 3 ?x212)))
(let ((?x306 (+ (+ (* (div ?x200 146097) 400) (* ?x165 100)) (* (div ?x564 1461) 4))))
(let ((?x542 (+ (+ ?x306 ?x518) 1)))
(let (($x591 (or (and (= (mod ?x542 4) 0) (and (distinct (mod ?x542 100) 0) true)) (= (mod ?x542 400) 0))))
(let ((?x228 (- ?x327 (* ?x518 365))))
(let ((?x482 (ite $x591 31 31)))
(let (($x580 (>= ?x228 ?x482)))
(let ((?x534 (ite $x580 (+ (- ?x228 ?x482) 1) (+ (- ?x228 (ite $x591 0 0)) 1))))
(let ((?x844 (ite $x591 60 59)))
(let (($x597 (>= ?x228 ?x844)))
(let ((?x475 (ite $x591 91 90)))
(let (($x604 (>= ?x228 ?x475)))
(let ((?x807 (ite $x604 (+ (- ?x228 ?x475) 1) (ite $x597 (+ (- ?x228 ?x844) 1) ?x534))))
(let ((?x280 (ite $x591 121 120)))
(let (($x695 (>= ?x228 ?x280)))
(let ((?x562 (ite $x591 152 151)))
(let (($x143 (>= ?x228 ?x562)))
(let ((?x611 (ite $x143 (+ (- ?x228 ?x562) 1) (ite $x695 (+ (- ?x228 ?x280) 1) ?x807))))
(let ((?x249 (ite $x591 182 181)))
(let (($x105 (>= ?x228 ?x249)))
(let ((?x645 (ite $x591 213 212)))
(let (($x275 (>= ?x228 ?x645)))
(let ((?x99 (ite $x275 (+ (- ?x228 ?x645) 1) (ite $x105 (+ (- ?x228 ?x249) 1) ?x611))))
(let ((?x596 (ite $x591 244 243)))
(let (($x187 (>= ?x228 ?x596)))
(let ((?x533 (ite $x591 274 273)))
(let (($x772 (>= ?x228 ?x533)))
(let ((?x259 (ite $x772 (+ (- ?x228 ?x533) 1) (ite $x187 (+ (- ?x228 ?x596) 1) ?x99))))
(let ((?x2534 (ite $x591 305 304)))
(let (($x342 (>= ?x228 ?x2534)))
(let ((?x1668 (ite $x591 335 334)))
(let (($x442 (>= ?x228 ?x1668)))
(let ((?x370 (ite $x442 (+ (- ?x228 ?x1668) 1) (ite $x342 (+ (- ?x228 ?x2534) 1) ?x259))))
(let (($x648 (= 0 0)))
(let ((?x544 (ite $x208 5 (ite $x498 4 (ite $x251 3 (ite $x169 2 1))))))
(let ((?x812 (ite $x1256 9 (ite $x1253 8 (ite $x144 7 (ite $x622 6 ?x544))))))
(let ((?x176 (ite $x134 12 (ite $x509 11 (ite $x310 10 ?x812)))))
(let ((?x691 (+ (mod (- (+ x_month 0) 1) 12) 1)))
(let ((?x949 (ite $x660 ?x691 ?x176)))
(let ((?x682 (ite $x695 5 (ite $x604 4 (ite $x597 3 (ite $x580 2 1))))))
(let ((?x432 (ite $x187 9 (ite $x275 8 (ite $x105 7 (ite $x143 6 ?x682))))))
(let ((?x304 (+ (mod (- (+ x_month 1) 1) 12) 1)))
(let ((?x152 (ite $x648 ?x304 (ite $x442 12 (ite $x342 11 (ite $x772 10 ?x432))))))
(let (($x2514 (or (< ?x152 ?x949) (and (= ?x152 ?x949) (<= (ite $x648 ?x558 ?x370) (ite $x660 ?x792 ?x1176))))))
(let (($x565 (or (< (ite $x648 ?x702 ?x542) (ite $x660 ?x661 ?x137)) (and (= (ite $x648 ?x702 ?x542) (ite $x660 ?x661 ?x137)) $x2514))))
(not $x565))))))))))))))))))))))))))))))))))))))))))))))))))))))))))))))))))))))))))))))))))))))))))))))))))))))))))))))))))))))))))))))))))))))))))))))
(check-sat)
